NAME : XML100_1363_24
DIMENSION : 101
NB_CLUSTERS : 5
CLUSTERING_ALG : KMedoids
CLUSTERING_PARAMS : k(4)
CLUSTERS
1 0
2 1 6 7 13 17 18 22 23 24 27 32 33 50 61 66 67 85 86 91 94
3 2 5 8 9 10 12 14 15 16 29 30 31 34 37 45 46 47 48 49 58 59 60 63 71 76 79 81 84 87 95 96 97
4 3 11 20 21 26 28 38 54 57 62 64 73 78 83 88 90 92 93 98 99
5 4 19 25 35 36 39 40 41 42 43 44 51 52 53 55 56 65 68 69 70 72 74 75 77 80 82 89 100
EOF